JulietBench/Juliet_Based_Patch_Bench/qemu/CWE-369-Divide-By-Zero/CVE_2016_9922_4299b90e9ba9ce5ca9024572804ba751aa1a7e70/solverblit_region_is_unsafe_Snippet_patch1.smt2
; benchmark generated from python API
(set-info :status unknown)
(declare-fun R () (_ BitVec 32))
(declare-fun rdi () (_ BitVec 64))
(assert
 (let (($x1360 (= (_ bv1 32) R)))
 (let ((?x6 ((_ extract 31 0) rdi)))
 (let (($x949 (= (_ bv0 32) ?x6)))
 (let (($x1407 (and $x949 $x1360)))
 (let (($x61 (and (distinct (_ bv0 32) ?x6) true)))
 (let ((?x7 ((_ zero_extend 32) ?x6)))
 (let ((?x11 (bvlshr ?x7 (_ bv31 64))))
 (let ((?x20 ((_ extract 0 0) ?x11)))
 (let ((?x27 (bvand ?x20 (_ bv1 1))))
 (let (($x26 (and (distinct (_ bv0 1) ?x27) true)))
 (let ((?x38 ((_ extract 31 31) rdi)))
 (let ((?x77 (concat (concat (concat (concat (concat ?x38 ?x38) ?x38) ?x38) ?x38) ?x38)))
 (let ((?x82 (concat (concat (concat (concat (concat ?x77 ?x38) ?x38) ?x38) ?x38) ?x38)))
 (let ((?x87 (concat (concat (concat (concat (concat ?x82 ?x38) ?x38) ?x38) ?x38) ?x38)))
 (let ((?x92 (concat (concat (concat (concat (concat ?x87 ?x38) ?x38) ?x38) ?x38) ?x38)))
 (let ((?x97 (concat (concat (concat (concat (concat ?x92 ?x38) ?x38) ?x38) ?x38) ?x38)))
 (let ((?x102 (concat (concat (concat (concat (concat ?x97 ?x38) ?x38) ?x38) ?x38) ?x38)))
 (let ((?x104 (concat (concat ?x102 ?x38) ?x6)))
 (let ((?x105 (bvmul (_ bv7 64) ?x104)))
 (let ((?x106 (bvadd (_ bv50 64) ?x105)))
 (let ((?x108 (bvlshr ?x106 (_ bv63 64))))
 (let ((?x109 ((_ extract 0 0) ?x108)))
 (let (($x110 (and (distinct (_ bv0 1) ?x109) true)))
 (let (($x1404 (and $x110 $x26 $x61 $x1360)))
 (let (($x37 (= (_ bv0 32) R)))
 (let (($x53 (= (_ bv0 1) ?x27)))
 (let ((?x946 (bvadd (_ bv58 64) ?x105)))
 (let (($x777 (bvsge (_ bv4294967295 64) ?x946)))
 (let (($x1401 (and $x777 $x53 $x61 $x37)))
 (let (($x876 (bvslt (_ bv4294967295 64) ?x946)))
 (let (($x1336 (and $x876 $x53 $x61 $x1360)))
 (let (($x927 (= (_ bv0 1) ?x109)))
 (let (($x1327 (and $x927 $x26 $x61 $x37)))
 (let (($x1410 (or $x1327 $x1336 $x1401 $x1404 $x1407)))
 (let (($x1419 (not $x1410)))
 (let (($x1309 (and $x110 $x26 $x1360)))
 (let (($x1237 (and $x777 $x53 $x37)))
 (let (($x1366 (and $x876 $x53 $x1360)))
 (let (($x51 (and $x927 $x26 $x37)))
 (let (($x1231 (or $x51 $x1366 $x1237 $x1309)))
 (let (($x1416 (not $x1231)))
 (let (($x1422 (and $x1416 $x1419)))
 (let (($x1413 (and $x1231 $x1410)))
 (let (($x1425 (or $x1413 $x1422)))
 (not $x1425))))))))))))))))))))))))))))))))))))))))))))))
(check-sat)
